p cnf 7230 16
4550 5102 -5425 0
4548 5096 -5423 0
4536 5094 -5419 0
-4550 -5426 0
-4548 -5424 0
-4536 -5420 0
5425 5426 0
5423 5424 0
5421 5422 0
5092 -5422 0
-5092 -5421 0
5419 5420 0
-5102 -5426 0
-5096 -5424 0
-5094 -5420 0
5417 5418 0
